n = 50;
C = 6888;
w = [203,258,201,199,381,415,377,59,486,232,467,92,95,475,87,496,292,117,322,105,246,329,173,285,423,307,423,303,296,337,187,150,337,115,223,327,220,300,321,461,17,88,80,103,396,252,470,492,383,374];
p = [1025,1300,1015,1005,1915,2085,1895,305,2440,1170,2345,470,485,2385,445,2490,1470,595,1620,535,1240,1655,875,1435,2125,1545,2125,1525,1490,1695,945,760,1695,585,1125,1645,1110,1510,1615,2315,95,450,410,525,1990,1270,2360,2470,1925,1880];
